

******************************************************************************
This program contains Ipopt, a library for large-scale nonlinear optimization.
 Ipopt is released as open source code under the Eclipse Public License (EPL).
         For more information visit http://projects.coin-or.org/Ipopt
******************************************************************************

This is Ipopt version 3.12.8, running with linear solver mumps.
NOTE: Other linear solvers might be more efficient (see Ipopt documentation).

Number of nonzeros in equality constraint Jacobian...:        0
Number of nonzeros in inequality constraint Jacobian.:       39
Number of nonzeros in Lagrangian Hessian.............:       15

Total number of variables............................:       15
                     variables with only lower bounds:        0
                variables with lower and upper bounds:       15
                     variables with only upper bounds:        0
Total number of equality constraints.................:        0
Total number of inequality constraints...............:       17
        inequality constraints with only lower bounds:        5
   inequality constraints with lower and upper bounds:       12
        inequality constraints with only upper bounds:        0

iter    objective    inf_pr   inf_du lg(mu)  ||d||  lg(rg) alpha_du alpha_pr  ls
   0  9.4271625e+02 0.00e+00 8.05e-01  -1.0 0.00e+00    -  0.00e+00 0.00e+00   0
   1  8.9581219e+02 6.83e-01 7.49e-01  -1.0 2.22e+01    -  2.25e-01 3.07e-01f  1
   2  7.2490816e+02 1.68e-01 1.23e+00  -1.0 3.50e+01    -  1.50e-01 6.99e-01f  1
   3  6.9061563e+02 4.13e-02 5.92e-01  -1.0 1.30e+01    -  3.63e-01 5.90e-01f  1
   4  6.7436255e+02 0.00e+00 2.14e-01  -1.0 8.59e+00    -  7.62e-01 5.75e-01f  1
   5  6.6704095e+02 0.00e+00 1.76e-01  -1.0 4.13e+00    -  8.57e-01 5.80e-01f  1
   6  6.6630021e+02 0.00e+00 2.46e-04  -1.0 2.11e+00    -  1.00e+00 1.00e+00f  1
   7  6.6498749e+02 0.00e+00 4.69e-02  -2.5 2.52e+00    -  7.28e-01 9.72e-01f  1
   8  6.6486685e+02 0.00e+00 1.03e-02  -2.5 2.12e+00    -  7.81e-01 8.59e-01f  1
   9  6.6482330e+02 0.00e+00 9.35e-04  -3.8 1.03e-01    -  1.00e+00 9.65e-01f  1
iter    objective    inf_pr   inf_du lg(mu)  ||d||  lg(rg) alpha_du alpha_pr  ls
  10  6.6482047e+02 0.00e+00 1.84e-11  -5.7 4.25e-03    -  1.00e+00 1.00e+00f  1
  11  6.6482044e+02 0.00e+00 2.53e-14  -8.6 5.54e-05    -  1.00e+00 1.00e+00f  1

Number of Iterations....: 11

                                   (scaled)                 (unscaled)
Objective...............:   6.6482044245820009e+02    6.6482044245820009e+02
Dual infeasibility......:   2.5313084961453569e-14    2.5313084961453569e-14
Constraint violation....:   0.0000000000000000e+00    0.0000000000000000e+00
Complementarity.........:   2.5699010455795223e-09    2.5699010455795223e-09
Overall NLP error.......:   2.5699010455795223e-09    2.5699010455795223e-09


Number of objective function evaluations             = 12
Number of objective gradient evaluations             = 12
Number of equality constraint evaluations            = 0
Number of inequality constraint evaluations          = 12
Number of equality constraint Jacobian evaluations   = 0
Number of inequality constraint Jacobian evaluations = 12
Number of Lagrangian Hessian evaluations             = 11
Total CPU secs in IPOPT (w/o function evaluations)   =      0.001
Total CPU secs in NLP function evaluations           =      0.000

EXIT: Optimal Solution Found.
 
Ipopt 3.12.8: Optimal Solution Found
